c Random CNF formula
p cnf 200 47
-160 118 47 0
35 -9 -86 0
130 78 -135 0
-104 30 94 0
-65 17 200 0
-75 70 111 0
-156 -184 -173 0
199 100 46 0
-82 70 173 0
36 39 -126 0
-81 174 -20 0
-150 -116 153 0
24 77 154 0
80 -129 147 0
122 -21 173 0
-194 39 119 0
-163 39 -45 0
-105 -110 -69 0
25 195 -122 0
-62 27 20 0
6 -124 164 0
108 91 -196 0
-47 108 168 0
18 147 -148 0
190 124 -151 0
-15 -81 140 0
128 165 -55 0
104 -64 125 0
-74 99 -80 0
-167 -157 -48 0
136 14 115 0
131 171 37 0
15 198 -176 0
123 -162 10 0
57 -103 -162 0
-5 -13 -152 0
89 -151 -110 0
-120 -43 -76 0
7 29 -38 0
154 17 125 0
-20 -191 103 0
61 -126 97 0
148 -116 153 0
-120 -15 6 0
96 -198 -61 0
198 -176 -142 0
22 120 -15 0
